s td 18 3 20
b 1 1 2 11
b 2 2 11 12
b 3 2 3 12
b 4 3 12 13
b 5 3 4 13
b 6 4 13 14
b 7 4 5 14
b 8 5 14 15
b 9 5 6 15
b 10 6 15 16
b 11 6 7 16
b 12 7 16 17
b 13 7 8 17
b 14 8 17 18
b 15 8 9 18
b 16 9 18 19
b 17 9 10 19
b 18 10 19 20
1 2
2 3
3 4
4 5
5 6
6 7
7 8
8 9
9 10
10 11
11 12
12 13
13 14
14 15
15 16
16 17
17 18
